(set-info :smt-lib-version 2.6)
(set-logic UF)
(set-info :source |Benchmarks from the paper: "Extending Sledgehammer with SMT Solvers" by Jasmin Blanchette, Sascha Bohme, and Lawrence C. Paulson, CADE 2011.  Translated to SMT2 by Andrew Reynolds and Morgan Deters.|)
(set-info :category "industrial")
(set-info :status sat)
(declare-sort S1 0)
(declare-sort S2 0)
(declare-sort S3 0)
(declare-sort S4 0)
(declare-sort S5 0)
(declare-sort S6 0)
(declare-sort S7 0)
(declare-sort S8 0)
(declare-fun f1 () S1)
(declare-fun f2 () S1)
(declare-fun f3 (S3 S2) S1)
(declare-fun f4 () S3)
(declare-fun f5 (S5 S4) S1)
(declare-fun f6 () S5)
(declare-fun f7 (S6 S5) S1)
(declare-fun f8 () S6)
(declare-fun f9 (S5 S6) S1)
(declare-fun f10 () S6)
(declare-fun f11 (S3) S6)
(declare-fun f12 () S3)
(declare-fun f13 (S6) S6)
(declare-fun f14 (S3) S6)
(declare-fun f15 (S5) S5)
(declare-fun f16 (S4) S6)
(declare-fun f17 (S7 S2) S4)
(declare-fun f18 (S8 S2) S7)
(declare-fun f19 () S8)
(declare-fun f20 () S6)
(declare-fun f21 () S5)
(declare-fun f22 (S2 S3) S1)
(declare-fun f23 () S1)
(declare-fun f24 (S3) S3)
(declare-fun f25 (S5) S5)
(assert (not (= f1 f2)))
(assert (forall ((?v0 S2)) (= (= (f3 f4 ?v0) f1) true)))
(assert (forall ((?v0 S4)) (= (= (f5 f6 ?v0) f1) true)))
(assert (forall ((?v0 S5)) (= (= (f7 f8 ?v0) f1) true)))
(assert (not (exists ((?v0 S5)) (= (f9 ?v0 f10) f1))))
(assert (exists ((?v0 S5)) (= (f7 (f11 f12) ?v0) f1)))
(assert (= f10 (f13 (f14 f12))))
(assert (forall ((?v0 S5)) (= (= (f9 (f15 ?v0) f10) f1) (= (f9 ?v0 f10) f1))))
(assert (forall ((?v0 S5) (?v1 S2) (?v2 S2)) (=> (= (f9 ?v0 f10) f1) (=> (not (= ?v1 ?v2)) (= (not (= (f7 (f16 (f17 (f18 f19 ?v1) ?v2)) ?v0) f1)) (= (f7 (f16 (f17 (f18 f19 ?v2) ?v1)) ?v0) f1))))))
(assert (forall ((?v0 S5) (?v1 S2) (?v2 S2)) (=> (= (f9 ?v0 f10) f1) (=> (= (f7 (f16 (f17 (f18 f19 ?v1) ?v2)) ?v0) f1) (=> (= (f7 (f16 (f17 (f18 f19 ?v2) ?v1)) ?v0) f1) false)))))
(assert (exists ((?v0 S5)) (= (f7 (f11 f12) ?v0) f1)))
(assert (forall ((?v0 S2)) (= (f3 f12 ?v0) f1)))
(assert (forall ((?v0 S5)) (= (f7 f20 ?v0) f1)))
(assert (forall ((?v0 S4)) (= (f5 f21 ?v0) f1)))
(assert (forall ((?v0 S4)) (= (f7 (f16 ?v0) f21) f1)))
(assert (forall ((?v0 S5)) (= (f9 ?v0 f20) f1)))
(assert (forall ((?v0 S2)) (= (f22 ?v0 f12) f1)))
(assert (forall ((?v0 S4)) (= (= (f7 (f16 ?v0) f21) f1) true)))
(assert (forall ((?v0 S5)) (= (= (f9 ?v0 f20) f1) true)))
(assert (forall ((?v0 S2)) (= (= (f22 ?v0 f12) f1) true)))
(assert (forall ((?v0 S2) (?v1 S2) (?v2 S5)) (= (= (f7 (f16 (f17 (f18 f19 ?v0) ?v1)) (f15 ?v2)) f1) (= (f7 (f16 (f17 (f18 f19 ?v1) ?v0)) ?v2) f1))))
(assert (forall ((?v0 S2) (?v1 S2) (?v2 S5)) (=> (= (f7 (f16 (f17 (f18 f19 ?v0) ?v1)) ?v2) f1) (= (f7 (f16 (f17 (f18 f19 ?v1) ?v0)) (f15 ?v2)) f1))))
(assert (forall ((?v0 S2) (?v1 S2) (?v2 S5)) (=> (= (f7 (f16 (f17 (f18 f19 ?v0) ?v1)) (f15 ?v2)) f1) (= (f7 (f16 (f17 (f18 f19 ?v1) ?v0)) ?v2) f1))))
(assert (forall ((?v0 S2)) (= (= (f3 f12 ?v0) f1) (= f23 f1))))
(assert (forall ((?v0 S5)) (= (= (f7 f20 ?v0) f1) (= f23 f1))))
(assert (forall ((?v0 S4)) (= (= (f5 f21 ?v0) f1) (= f23 f1))))
(assert (forall ((?v0 S4) (?v1 S5)) (=> (= (f7 (f16 ?v0) (f15 ?v1)) f1) (=> (forall ((?v2 S2) (?v3 S2)) (=> (= ?v0 (f17 (f18 f19 ?v3) ?v2)) (=> (= (f7 (f16 (f17 (f18 f19 ?v2) ?v3)) ?v1) f1) false))) false))))
(assert (forall ((?v0 S5)) (= (f15 (f15 ?v0)) ?v0)))
(assert (= f20 (f13 f8)))
(assert (= f12 (f24 f4)))
(assert (= f21 (f25 f6)))
(assert (forall ((?v0 S5)) (= (forall ((?v1 S4)) (= (f5 ?v0 ?v1) f1)) (forall ((?v1 S2) (?v2 S2)) (= (f5 ?v0 (f17 (f18 f19 ?v1) ?v2)) f1)))))
(assert (forall ((?v0 S2) (?v1 S2) (?v2 S2) (?v3 S2)) (= (= (f17 (f18 f19 ?v0) ?v1) (f17 (f18 f19 ?v2) ?v3)) (and (= ?v0 ?v2) (= ?v1 ?v3)))))
(assert (forall ((?v0 S2) (?v1 S2) (?v2 S2) (?v3 S2)) (=> (= (f17 (f18 f19 ?v0) ?v1) (f17 (f18 f19 ?v2) ?v3)) (=> (=> (= ?v0 ?v2) (=> (= ?v1 ?v3) false)) false))))
(assert (forall ((?v0 S5)) (=> (forall ((?v1 S4)) (= (f7 (f16 ?v1) ?v0) f1)) (= f21 ?v0))))
(assert (forall ((?v0 S6)) (=> (forall ((?v1 S5)) (= (f9 ?v1 ?v0) f1)) (= f20 ?v0))))
(assert (forall ((?v0 S3)) (=> (forall ((?v1 S2)) (= (f22 ?v1 ?v0) f1)) (= f12 ?v0))))
(assert (exists ((?v0 S4)) (= (f7 (f16 ?v0) f21) f1)))
(assert (exists ((?v0 S5)) (= (f9 ?v0 f20) f1)))
(assert (exists ((?v0 S2)) (= (f22 ?v0 f12) f1)))
(assert (forall ((?v0 S4)) (=> (forall ((?v1 S2) (?v2 S2)) (=> (= ?v0 (f17 (f18 f19 ?v1) ?v2)) false)) false)))
(assert (forall ((?v0 S4)) (=> (forall ((?v1 S2) (?v2 S2)) (=> (= ?v0 (f17 (f18 f19 ?v1) ?v2)) false)) false)))
(assert (forall ((?v0 S5)) (= (exists ((?v1 S4)) (= (f5 ?v0 ?v1) f1)) (exists ((?v1 S2) (?v2 S2)) (= (f5 ?v0 (f17 (f18 f19 ?v1) ?v2)) f1)))))
(check-sat)
(exit)
